948
6818
3935
1215
5242
8224
3566
5720
6372
1091
7778
970
9229
1665
4103
9923
2133
7964
9412
939
7595
6037
1562
1428
2016
6985
2497
4562
5575
6379
9118
1262
10096
5473
4666
5841
4242
7816
8901
1577
1914
8938
1976
3134
6242
6125
3700
9782
4371
6468
